i9

VEHICLE
NUMBER     CAPACITY
  8         100

CUSTOMER
CUST NO.  XCOORD.   YCOORD.    DEMAND   READY TIME  DUE DATE   SERVICE   TIME
 
    0       0          0          0           0        100          0   
    1       1          7         13           4         10          0   
    2       7          2         14           8         10          0   
    3       5          6          6           2         10          0   
    4       2          2          8           5         10          0   
    5       1          4          1           9         10          0   
    6       6          1         14           2         10          0   
    7       7          6         15           9         10          0   
    8       2          5         12           3          9          0   
